column=9;
row=9;
Board=[|8,4,0,1,7,5,0,0,0|0,5,0,0,8,0,0,0,0|0,0,7,9,0,0,5,0,3|0,0,0,0,0,0,2,0,5|0,0,0,0,0,0,0,7,4|4,0,0,6,0,0,9,0,0|0,0,0,0,6,0,0,5,0|0,0,0,0,0,0,3,1,2|0,7,4,0,2,0,0,9,0|];
horizontal=[|0,1,0,0,0,1,0,0|0,0,1,0,0,1,0,0|0,1,0,0,0,0,0,0|0,0,0,0,0,0,0,1|0,0,0,1,0,0,0,0|0,1,0,1,0,0,0,0|1,0,1,0,0,1,1,0|0,0,1,0,0,1,0,1|0,0,1,0,1,0,1,0|];
vertical=[|1,1,1,0,1,1,1,0,0|0,1,0,0,0,0,0,0,0|0,0,1,0,0,0,0,0,0|1,0,0,0,0,1,1,1,1|0,0,0,0,0,1,0,0,0|0,1,0,0,1,0,0,0,1|0,0,0,1,0,1,1,0,0|0,1,0,0,0,0,0,0,0|];
